data/solutions/planning/degenerate/moderate/weighting/degenerate_moderate_instance22_gurobi.sol
Elapsed time: 6.27
Nodes explored: 15731
Nodes left: 2548
Relative gap: 0.01
Upper bound: 9830381488.0
Lower bound: 9829412355
C[0]=655405178.0
C[1]=655342554.0
C[2]=655340952.0
C[3]=655087944.0
y[0]=1
y[1]=2
y[2]=1
y[3]=1
y[4]=1
y[5]=2
y[6]=0
y[7]=2
y[8]=0
y[9]=2
y[10]=3
y[11]=1
y[12]=3
y[13]=3
y[14]=0
y[15]=1
y[16]=3
y[17]=2
y[18]=2
y[19]=3
y[20]=0
y[21]=2
y[22]=3
y[23]=0
y[24]=3
y[25]=2
y[26]=0
y[27]=1
y[28]=3
y[29]=0
y[30]=1
y[31]=3
y[32]=0
y[33]=0
y[34]=3
y[35]=2
y[36]=1
y[37]=3
y[38]=2
y[39]=1
